NAME 
OBJSENSE MAX
ROWS
 N  OBJ
 L  packing[0]
 L  packing[1]
 L  packing[2]
 L  packing[3]
 L  packing[4]
 L  packing[5]
 L  packing[6]
 L  packing[7]
 L  packing[8]
 L  packing[9]
 L  packing[10]
 L  packing[11]
 L  packing[12]
 L  packing[13]
 L  packing[14]
 L  packing[15]
 L  packing[16]
 L  packing[17]
 L  packing[18]
 L  packing[19]
 L  packing[20]
 L  packing[21]
 L  packing[22]
 L  packing[23]
 L  packing[24]
 L  packing[25]
 L  packing[26]
 L  packing[27]
 L  packing[28]
 L  packing[29]
 L  packing[30]
 L  packing[31]
 L  packing[32]
 L  packing[33]
 L  packing[34]
 L  packing[35]
 L  packing[36]
 L  packing[37]
 L  packing[38]
 L  packing[39]
 L  packing[40]
 L  packing[41]
 L  packing[42]
 L  packing[43]
 L  packing[44]
 L  packing[45]
 L  packing[46]
 L  packing[47]
 L  packing[48]
 L  packing[49]
 L  R51     
COLUMNS
    MARKER    'MARKER'                 'INTORG'
    x[1]      OBJ       105
    x[1]      packing[0]  4
    x[1]      packing[1]  176
    x[1]      packing[2]  85
    x[1]      packing[3]  34
    x[1]      packing[4]  122
    x[1]      packing[5]  58
    x[1]      packing[7]  136
    x[1]      packing[9]  128
    x[1]      packing[10]  116
    x[1]      packing[11]  38
    x[1]      packing[12]  179
    x[1]      packing[13]  128
    x[1]      packing[14]  134
    x[1]      packing[15]  50
    x[1]      packing[16]  189
    x[1]      packing[17]  27
    x[1]      packing[19]  49
    x[1]      packing[20]  56
    x[1]      packing[21]  146
    x[1]      packing[22]  102
    x[1]      packing[24]  175
    x[1]      packing[27]  143
    x[1]      packing[29]  122
    x[1]      packing[30]  1
    x[1]      packing[31]  157
    x[1]      packing[33]  1
    x[1]      packing[34]  196
    x[1]      packing[35]  123
    x[1]      packing[36]  89
    x[1]      packing[37]  93
    x[1]      packing[40]  197
    x[1]      packing[41]  175
    x[1]      packing[42]  147
    x[1]      packing[43]  62
    x[1]      packing[46]  66
    x[1]      packing[47]  75
    x[1]      packing[48]  78
    x[1]      packing[49]  6
    x[2]      OBJ       67
    x[2]      packing[0]  184
    x[2]      packing[1]  33
    x[2]      packing[4]  155
    x[2]      packing[6]  29
    x[2]      packing[7]  164
    x[2]      packing[8]  113
    x[2]      packing[9]  102
    x[2]      packing[10]  122
    x[2]      packing[11]  25
    x[2]      packing[15]  99
    x[2]      packing[16]  159
    x[2]      packing[17]  49
    x[2]      packing[18]  136
    x[2]      packing[19]  174
    x[2]      packing[20]  71
    x[2]      packing[21]  50
    x[2]      packing[22]  111
    x[2]      packing[23]  5
    x[2]      packing[24]  29
    x[2]      packing[25]  24
    x[2]      packing[27]  29
    x[2]      packing[28]  141
    x[2]      packing[29]  120
    x[2]      packing[31]  64
    x[2]      packing[34]  76
    x[2]      packing[35]  46
    x[2]      packing[36]  153
    x[2]      packing[37]  49
    x[2]      packing[38]  124
    x[2]      packing[39]  52
    x[2]      packing[40]  27
    x[2]      packing[42]  196
    x[2]      packing[43]  103
    x[2]      packing[44]  100
    x[2]      packing[45]  150
    x[2]      packing[46]  132
    x[2]      packing[47]  71
    x[2]      packing[48]  72
    x[2]      packing[49]  139
    x[3]      OBJ       109
    x[3]      packing[2]  10
    x[3]      packing[3]  174
    x[3]      packing[6]  70
    x[3]      packing[7]  150
    x[3]      packing[8]  58
    x[3]      packing[9]  62
    x[3]      packing[11]  140
    x[3]      packing[12]  119
    x[3]      packing[13]  30
    x[3]      packing[14]  175
    x[3]      packing[16]  26
    x[3]      packing[17]  142
    x[3]      packing[18]  106
    x[3]      packing[19]  183
    x[3]      packing[20]  85
    x[3]      packing[22]  134
    x[3]      packing[23]  59
    x[3]      packing[25]  109
    x[3]      packing[27]  74
    x[3]      packing[28]  158
    x[3]      packing[29]  95
    x[3]      packing[31]  34
    x[3]      packing[32]  73
    x[3]      packing[34]  188
    x[3]      packing[38]  60
    x[3]      packing[40]  59
    x[3]      packing[41]  115
    x[3]      packing[42]  15
    x[3]      packing[43]  48
    x[3]      packing[45]  63
    x[3]      packing[46]  9
    x[3]      packing[47]  34
    x[3]      packing[48]  146
    x[4]      OBJ       185
    x[4]      packing[1]  199
    x[4]      packing[4]  51
    x[4]      packing[5]  5
    x[4]      packing[6]  151
    x[4]      packing[7]  174
    x[4]      packing[8]  125
    x[4]      packing[9]  105
    x[4]      packing[11]  24
    x[4]      packing[12]  35
    x[4]      packing[13]  52
    x[4]      packing[14]  144
    x[4]      packing[15]  152
    x[4]      packing[16]  56
    x[4]      packing[17]  147
    x[4]      packing[19]  126
    x[4]      packing[20]  55
    x[4]      packing[23]  150
    x[4]      packing[25]  142
    x[4]      packing[26]  136
    x[4]      packing[27]  105
    x[4]      packing[29]  55
    x[4]      packing[30]  190
    x[4]      packing[31]  150
    x[4]      packing[32]  173
    x[4]      packing[33]  172
    x[4]      packing[34]  131
    x[4]      packing[35]  71
    x[4]      packing[36]  175
    x[4]      packing[37]  182
    x[4]      packing[38]  78
    x[4]      packing[39]  181
    x[4]      packing[40]  174
    x[4]      packing[41]  165
    x[4]      packing[43]  168
    x[4]      packing[44]  50
    x[4]      packing[45]  179
    x[4]      packing[46]  151
    x[4]      packing[47]  14
    x[4]      packing[48]  197
    x[4]      packing[49]  102
    x[4]      R51       1
    x[5]      OBJ       37
    x[5]      packing[0]  17
    x[5]      packing[1]  180
    x[5]      packing[3]  157
    x[5]      packing[4]  38
    x[5]      packing[5]  172
    x[5]      packing[6]  161
    x[5]      packing[7]  111
    x[5]      packing[11]  65
    x[5]      packing[12]  167
    x[5]      packing[13]  62
    x[5]      packing[14]  186
    x[5]      packing[15]  144
    x[5]      packing[18]  151
    x[5]      packing[19]  102
    x[5]      packing[20]  29
    x[5]      packing[21]  22
    x[5]      packing[22]  55
    x[5]      packing[23]  7
    x[5]      packing[25]  150
    x[5]      packing[26]  45
    x[5]      packing[27]  118
    x[5]      packing[28]  139
    x[5]      packing[29]  1
    x[5]      packing[30]  102
    x[5]      packing[31]  15
    x[5]      packing[33]  74
    x[5]      packing[34]  110
    x[5]      packing[37]  16
    x[5]      packing[39]  106
    x[5]      packing[41]  1
    x[5]      packing[42]  104
    x[5]      packing[43]  189
    x[5]      packing[46]  73
    x[5]      packing[47]  9
    x[5]      packing[48]  69
    x[5]      packing[49]  3
    x[6]      OBJ       74
    x[6]      packing[0]  171
    x[6]      packing[1]  70
    x[6]      packing[2]  52
    x[6]      packing[3]  8
    x[6]      packing[5]  50
    x[6]      packing[6]  64
    x[6]      packing[7]  78
    x[6]      packing[8]  23
    x[6]      packing[9]  187
    x[6]      packing[10]  122
    x[6]      packing[13]  143
    x[6]      packing[14]  53
    x[6]      packing[15]  124
    x[6]      packing[17]  110
    x[6]      packing[18]  55
    x[6]      packing[22]  88
    x[6]      packing[23]  114
    x[6]      packing[24]  66
    x[6]      packing[25]  19
    x[6]      packing[26]  167
    x[6]      packing[27]  87
    x[6]      packing[28]  70
    x[6]      packing[29]  138
    x[6]      packing[31]  180
    x[6]      packing[32]  34
    x[6]      packing[34]  41
    x[6]      packing[35]  44
    x[6]      packing[36]  185
    x[6]      packing[37]  24
    x[6]      packing[38]  34
    x[6]      packing[40]  29
    x[6]      packing[41]  3
    x[6]      packing[43]  118
    x[6]      packing[44]  44
    x[6]      packing[45]  8
    x[6]      packing[46]  63
    x[6]      packing[47]  57
    x[6]      packing[48]  96
    x[7]      OBJ       56
    x[7]      packing[0]  6
    x[7]      packing[1]  192
    x[7]      packing[2]  28
    x[7]      packing[5]  130
    x[7]      packing[6]  79
    x[7]      packing[7]  12
    x[7]      packing[9]  83
    x[7]      packing[10]  137
    x[7]      packing[12]  142
    x[7]      packing[13]  32
    x[7]      packing[14]  143
    x[7]      packing[15]  49
    x[7]      packing[18]  67
    x[7]      packing[19]  154
    x[7]      packing[20]  184
    x[7]      packing[22]  147
    x[7]      packing[23]  154
    x[7]      packing[24]  130
    x[7]      packing[25]  199
    x[7]      packing[26]  62
    x[7]      packing[27]  141
    x[7]      packing[28]  62
    x[7]      packing[29]  162
    x[7]      packing[30]  163
    x[7]      packing[31]  33
    x[7]      packing[32]  174
    x[7]      packing[33]  43
    x[7]      packing[34]  138
    x[7]      packing[36]  12
    x[7]      packing[37]  88
    x[7]      packing[38]  49
    x[7]      packing[40]  111
    x[7]      packing[42]  163
    x[7]      packing[43]  129
    x[7]      packing[44]  104
    x[7]      packing[45]  180
    x[7]      packing[46]  169
    x[7]      packing[48]  9
    x[7]      packing[49]  121
    x[8]      OBJ       136
    x[8]      packing[0]  33
    x[8]      packing[1]  99
    x[8]      packing[2]  24
    x[8]      packing[3]  91
    x[8]      packing[4]  106
    x[8]      packing[5]  65
    x[8]      packing[6]  175
    x[8]      packing[7]  155
    x[8]      packing[9]  122
    x[8]      packing[10]  106
    x[8]      packing[11]  119
    x[8]      packing[13]  16
    x[8]      packing[15]  164
    x[8]      packing[16]  60
    x[8]      packing[17]  23
    x[8]      packing[18]  103
    x[8]      packing[19]  34
    x[8]      packing[20]  41
    x[8]      packing[21]  134
    x[8]      packing[22]  14
    x[8]      packing[23]  131
    x[8]      packing[24]  32
    x[8]      packing[25]  33
    x[8]      packing[26]  193
    x[8]      packing[27]  141
    x[8]      packing[28]  162
    x[8]      packing[30]  116
    x[8]      packing[31]  35
    x[8]      packing[33]  179
    x[8]      packing[34]  167
    x[8]      packing[35]  187
    x[8]      packing[36]  63
    x[8]      packing[37]  55
    x[8]      packing[38]  148
    x[8]      packing[39]  64
    x[8]      packing[41]  148
    x[8]      packing[42]  106
    x[8]      packing[43]  25
    x[8]      packing[44]  11
    x[8]      packing[45]  11
    x[8]      packing[46]  95
    x[8]      packing[48]  33
    x[8]      packing[49]  49
    x[9]      OBJ       143
    x[9]      packing[0]  104
    x[9]      packing[1]  44
    x[9]      packing[2]  197
    x[9]      packing[3]  12
    x[9]      packing[5]  132
    x[9]      packing[6]  22
    x[9]      packing[13]  150
    x[9]      packing[14]  104
    x[9]      packing[15]  137
    x[9]      packing[17]  140
    x[9]      packing[18]  93
    x[9]      packing[21]  193
    x[9]      packing[22]  55
    x[9]      packing[23]  168
    x[9]      packing[24]  107
    x[9]      packing[25]  135
    x[9]      packing[27]  146
    x[9]      packing[28]  21
    x[9]      packing[29]  120
    x[9]      packing[30]  182
    x[9]      packing[31]  30
    x[9]      packing[32]  105
    x[9]      packing[33]  31
    x[9]      packing[34]  13
    x[9]      packing[35]  87
    x[9]      packing[36]  56
    x[9]      packing[37]  136
    x[9]      packing[38]  40
    x[9]      packing[39]  153
    x[9]      packing[40]  92
    x[9]      packing[41]  86
    x[9]      packing[42]  112
    x[9]      packing[43]  154
    x[9]      packing[44]  168
    x[9]      packing[45]  122
    x[9]      packing[46]  58
    x[9]      packing[47]  95
    x[9]      packing[48]  172
    x[9]      R51       1
    x[10]     OBJ       115
    x[10]     packing[0]  66
    x[10]     packing[1]  108
    x[10]     packing[2]  70
    x[10]     packing[3]  29
    x[10]     packing[4]  135
    x[10]     packing[5]  162
    x[10]     packing[6]  198
    x[10]     packing[7]  146
    x[10]     packing[8]  74
    x[10]     packing[9]  161
    x[10]     packing[10]  67
    x[10]     packing[11]  122
    x[10]     packing[12]  185
    x[10]     packing[13]  149
    x[10]     packing[14]  90
    x[10]     packing[15]  83
    x[10]     packing[16]  144
    x[10]     packing[17]  107
    x[10]     packing[18]  130
    x[10]     packing[19]  163
    x[10]     packing[21]  180
    x[10]     packing[22]  144
    x[10]     packing[24]  46
    x[10]     packing[25]  118
    x[10]     packing[26]  144
    x[10]     packing[27]  161
    x[10]     packing[29]  164
    x[10]     packing[30]  157
    x[10]     packing[32]  143
    x[10]     packing[33]  7
    x[10]     packing[35]  179
    x[10]     packing[36]  153
    x[10]     packing[38]  133
    x[10]     packing[39]  91
    x[10]     packing[41]  193
    x[10]     packing[42]  82
    x[10]     packing[43]  19
    x[10]     packing[44]  47
    x[10]     packing[45]  149
    x[10]     packing[47]  81
    x[10]     packing[48]  148
    x[10]     packing[49]  198
    x[11]     OBJ       111
    x[11]     packing[2]  71
    x[11]     packing[3]  62
    x[11]     packing[4]  11
    x[11]     packing[5]  62
    x[11]     packing[6]  4
    x[11]     packing[7]  170
    x[11]     packing[10]  100
    x[11]     packing[11]  195
    x[11]     packing[12]  65
    x[11]     packing[14]  63
    x[11]     packing[15]  81
    x[11]     packing[16]  65
    x[11]     packing[17]  46
    x[11]     packing[20]  32
    x[11]     packing[21]  85
    x[11]     packing[22]  81
    x[11]     packing[23]  19
    x[11]     packing[24]  38
    x[11]     packing[25]  157
    x[11]     packing[26]  182
    x[11]     packing[27]  83
    x[11]     packing[28]  142
    x[11]     packing[29]  36
    x[11]     packing[31]  25
    x[11]     packing[32]  199
    x[11]     packing[33]  160
    x[11]     packing[34]  199
    x[11]     packing[35]  76
    x[11]     packing[36]  151
    x[11]     packing[37]  51
    x[11]     packing[41]  55
    x[11]     packing[42]  52
    x[11]     packing[43]  89
    x[11]     packing[44]  60
    x[11]     packing[45]  67
    x[11]     packing[47]  16
    x[11]     packing[48]  9
    x[11]     packing[49]  150
    x[12]     OBJ       159
    x[12]     packing[1]  197
    x[12]     packing[2]  166
    x[12]     packing[5]  112
    x[12]     packing[6]  160
    x[12]     packing[8]  154
    x[12]     packing[10]  45
    x[12]     packing[11]  160
    x[12]     packing[12]  102
    x[12]     packing[14]  193
    x[12]     packing[15]  76
    x[12]     packing[16]  15
    x[12]     packing[17]  136
    x[12]     packing[18]  147
    x[12]     packing[19]  106
    x[12]     packing[20]  133
    x[12]     packing[21]  80
    x[12]     packing[22]  185
    x[12]     packing[23]  67
    x[12]     packing[24]  97
    x[12]     packing[25]  112
    x[12]     packing[26]  85
    x[12]     packing[27]  103
    x[12]     packing[28]  5
    x[12]     packing[29]  14
    x[12]     packing[30]  17
    x[12]     packing[33]  175
    x[12]     packing[34]  116
    x[12]     packing[35]  155
    x[12]     packing[36]  89
    x[12]     packing[38]  62
    x[12]     packing[39]  137
    x[12]     packing[40]  49
    x[12]     packing[41]  158
    x[12]     packing[43]  60
    x[12]     packing[46]  4
    x[12]     packing[47]  41
    x[12]     packing[48]  195
    x[12]     packing[49]  140
    x[13]     OBJ       153
    x[13]     packing[0]  2
    x[13]     packing[1]  120
    x[13]     packing[2]  120
    x[13]     packing[4]  100
    x[13]     packing[7]  150
    x[13]     packing[8]  193
    x[13]     packing[9]  100
    x[13]     packing[11]  39
    x[13]     packing[12]  153
    x[13]     packing[13]  62
    x[13]     packing[14]  166
    x[13]     packing[15]  65
    x[13]     packing[16]  135
    x[13]     packing[17]  1
    x[13]     packing[18]  63
    x[13]     packing[19]  143
    x[13]     packing[20]  92
    x[13]     packing[21]  115
    x[13]     packing[22]  170
    x[13]     packing[23]  20
    x[13]     packing[24]  2
    x[13]     packing[25]  16
    x[13]     packing[26]  55
    x[13]     packing[27]  142
    x[13]     packing[29]  114
    x[13]     packing[30]  91
    x[13]     packing[31]  1
    x[13]     packing[32]  157
    x[13]     packing[33]  75
    x[13]     packing[34]  4
    x[13]     packing[36]  2
    x[13]     packing[37]  112
    x[13]     packing[40]  144
    x[13]     packing[42]  127
    x[13]     packing[43]  80
    x[13]     packing[45]  40
    x[13]     packing[46]  158
    x[13]     packing[47]  165
    x[13]     packing[48]  179
    x[13]     packing[49]  7
    x[13]     R51       1
    x[14]     OBJ       84
    x[14]     packing[0]  22
    x[14]     packing[1]  53
    x[14]     packing[2]  65
    x[14]     packing[4]  44
    x[14]     packing[5]  4
    x[14]     packing[6]  26
    x[14]     packing[7]  30
    x[14]     packing[8]  119
    x[14]     packing[10]  92
    x[14]     packing[11]  171
    x[14]     packing[12]  174
    x[14]     packing[13]  31
    x[14]     packing[14]  17
    x[14]     packing[15]  106
    x[14]     packing[16]  198
    x[14]     packing[17]  108
    x[14]     packing[19]  196
    x[14]     packing[20]  26
    x[14]     packing[21]  114
    x[14]     packing[22]  136
    x[14]     packing[24]  164
    x[14]     packing[26]  14
    x[14]     packing[28]  6
    x[14]     packing[31]  50
    x[14]     packing[32]  84
    x[14]     packing[33]  110
    x[14]     packing[34]  178
    x[14]     packing[35]  179
    x[14]     packing[37]  139
    x[14]     packing[38]  35
    x[14]     packing[40]  56
    x[14]     packing[41]  118
    x[14]     packing[43]  160
    x[14]     packing[44]  114
    x[14]     packing[45]  193
    x[14]     packing[46]  106
    x[14]     packing[48]  162
    x[14]     packing[49]  43
    x[15]     OBJ       113
    x[15]     packing[0]  66
    x[15]     packing[1]  30
    x[15]     packing[3]  38
    x[15]     packing[5]  3
    x[15]     packing[6]  106
    x[15]     packing[7]  43
    x[15]     packing[8]  61
    x[15]     packing[9]  64
    x[15]     packing[10]  122
    x[15]     packing[11]  46
    x[15]     packing[13]  49
    x[15]     packing[14]  44
    x[15]     packing[15]  128
    x[15]     packing[16]  60
    x[15]     packing[17]  106
    x[15]     packing[18]  141
    x[15]     packing[19]  87
    x[15]     packing[20]  92
    x[15]     packing[21]  62
    x[15]     packing[22]  93
    x[15]     packing[23]  189
    x[15]     packing[25]  180
    x[15]     packing[27]  122
    x[15]     packing[28]  59
    x[15]     packing[29]  93
    x[15]     packing[30]  186
    x[15]     packing[32]  110
    x[15]     packing[34]  71
    x[15]     packing[35]  62
    x[15]     packing[37]  153
    x[15]     packing[38]  26
    x[15]     packing[40]  28
    x[15]     packing[41]  150
    x[15]     packing[42]  185
    x[15]     packing[44]  1
    x[15]     packing[45]  5
    x[15]     packing[46]  81
    x[15]     packing[47]  109
    x[15]     packing[48]  143
    x[15]     packing[49]  9
    x[15]     R51       1
    x[16]     OBJ       108
    x[16]     packing[0]  123
    x[16]     packing[1]  162
    x[16]     packing[2]  147
    x[16]     packing[6]  63
    x[16]     packing[7]  68
    x[16]     packing[8]  166
    x[16]     packing[9]  36
    x[16]     packing[10]  92
    x[16]     packing[12]  139
    x[16]     packing[13]  52
    x[16]     packing[15]  69
    x[16]     packing[16]  84
    x[16]     packing[19]  44
    x[16]     packing[21]  175
    x[16]     packing[22]  85
    x[16]     packing[23]  196
    x[16]     packing[26]  148
    x[16]     packing[27]  189
    x[16]     packing[28]  178
    x[16]     packing[29]  90
    x[16]     packing[30]  117
    x[16]     packing[31]  120
    x[16]     packing[32]  174
    x[16]     packing[35]  37
    x[16]     packing[36]  125
    x[16]     packing[37]  91
    x[16]     packing[38]  33
    x[16]     packing[39]  56
    x[16]     packing[40]  80
    x[16]     packing[42]  53
    x[16]     packing[43]  46
    x[16]     packing[44]  88
    x[16]     packing[47]  103
    x[16]     packing[48]  170
    x[16]     packing[49]  80
    x[17]     OBJ       49
    x[17]     packing[3]  104
    x[17]     packing[4]  194
    x[17]     packing[8]  85
    x[17]     packing[9]  121
    x[17]     packing[10]  129
    x[17]     packing[11]  109
    x[17]     packing[12]  177
    x[17]     packing[13]  128
    x[17]     packing[14]  173
    x[17]     packing[15]  98
    x[17]     packing[18]  199
    x[17]     packing[19]  5
    x[17]     packing[20]  190
    x[17]     packing[21]  49
    x[17]     packing[22]  80
    x[17]     packing[23]  155
    x[17]     packing[26]  142
    x[17]     packing[27]  44
    x[17]     packing[28]  134
    x[17]     packing[29]  150
    x[17]     packing[30]  125
    x[17]     packing[31]  191
    x[17]     packing[32]  122
    x[17]     packing[33]  95
    x[17]     packing[34]  17
    x[17]     packing[35]  44
    x[17]     packing[36]  125
    x[17]     packing[38]  110
    x[17]     packing[39]  112
    x[17]     packing[40]  169
    x[17]     packing[41]  162
    x[17]     packing[42]  23
    x[17]     packing[43]  5
    x[17]     packing[44]  24
    x[17]     packing[46]  22
    x[17]     packing[47]  78
    x[17]     packing[48]  86
    x[17]     packing[49]  30
    x[18]     OBJ       64
    x[18]     packing[1]  15
    x[18]     packing[2]  21
    x[18]     packing[3]  43
    x[18]     packing[6]  171
    x[18]     packing[7]  158
    x[18]     packing[9]  92
    x[18]     packing[10]  170
    x[18]     packing[12]  59
    x[18]     packing[15]  111
    x[18]     packing[16]  147
    x[18]     packing[17]  184
    x[18]     packing[18]  35
    x[18]     packing[19]  117
    x[18]     packing[20]  78
    x[18]     packing[21]  105
    x[18]     packing[22]  88
    x[18]     packing[23]  169
    x[18]     packing[24]  27
    x[18]     packing[25]  63
    x[18]     packing[27]  192
    x[18]     packing[29]  117
    x[18]     packing[30]  147
    x[18]     packing[31]  143
    x[18]     packing[33]  54
    x[18]     packing[36]  164
    x[18]     packing[38]  62
    x[18]     packing[39]  119
    x[18]     packing[40]  158
    x[18]     packing[41]  42
    x[18]     packing[42]  26
    x[18]     packing[43]  127
    x[18]     packing[44]  79
    x[18]     packing[45]  145
    x[18]     packing[47]  133
    x[18]     packing[48]  71
    x[18]     packing[49]  73
    x[19]     OBJ       157
    x[19]     packing[1]  109
    x[19]     packing[4]  132
    x[19]     packing[5]  16
    x[19]     packing[6]  172
    x[19]     packing[7]  186
    x[19]     packing[8]  13
    x[19]     packing[10]  158
    x[19]     packing[13]  142
    x[19]     packing[14]  9
    x[19]     packing[15]  130
    x[19]     packing[17]  23
    x[19]     packing[18]  54
    x[19]     packing[19]  40
    x[19]     packing[21]  182
    x[19]     packing[22]  48
    x[19]     packing[24]  108
    x[19]     packing[25]  14
    x[19]     packing[26]  72
    x[19]     packing[27]  129
    x[19]     packing[28]  22
    x[19]     packing[30]  183
    x[19]     packing[31]  127
    x[19]     packing[32]  153
    x[19]     packing[33]  178
    x[19]     packing[35]  150
    x[19]     packing[37]  36
    x[19]     packing[38]  129
    x[19]     packing[39]  136
    x[19]     packing[41]  157
    x[19]     packing[42]  109
    x[19]     packing[43]  77
    x[19]     packing[45]  45
    x[19]     packing[46]  112
    x[19]     packing[48]  3
    x[19]     packing[49]  12
    x[19]     R51       1
    x[20]     OBJ       56
    x[20]     packing[0]  94
    x[20]     packing[2]  104
    x[20]     packing[3]  57
    x[20]     packing[4]  185
    x[20]     packing[5]  114
    x[20]     packing[6]  183
    x[20]     packing[7]  191
    x[20]     packing[8]  20
    x[20]     packing[9]  99
    x[20]     packing[10]  156
    x[20]     packing[11]  65
    x[20]     packing[12]  101
    x[20]     packing[13]  29
    x[20]     packing[15]  49
    x[20]     packing[16]  23
    x[20]     packing[17]  158
    x[20]     packing[18]  63
    x[20]     packing[20]  104
    x[20]     packing[21]  136
    x[20]     packing[23]  185
    x[20]     packing[24]  199
    x[20]     packing[25]  138
    x[20]     packing[28]  90
    x[20]     packing[29]  150
    x[20]     packing[30]  146
    x[20]     packing[31]  103
    x[20]     packing[32]  40
    x[20]     packing[33]  49
    x[20]     packing[34]  122
    x[20]     packing[35]  120
    x[20]     packing[36]  81
    x[20]     packing[38]  159
    x[20]     packing[42]  188
    x[20]     packing[45]  192
    x[20]     packing[48]  190
    x[20]     packing[49]  167
    MARKER    'MARKER'                 'INTEND'
RHS
    RHS1      packing[0]  446
    RHS1      packing[1]  894
    RHS1      packing[2]  580
    RHS1      packing[3]  405
    RHS1      packing[4]  637
    RHS1      packing[5]  543
    RHS1      packing[6]  917
    RHS1      packing[7]  1061
    RHS1      packing[8]  602
    RHS1      packing[9]  731
    RHS1      packing[10]  867
    RHS1      packing[11]  659
    RHS1      packing[12]  899
    RHS1      packing[13]  628
    RHS1      packing[14]  847
    RHS1      packing[15]  958
    RHS1      packing[16]  681
    RHS1      packing[17]  754
    RHS1      packing[18]  772
    RHS1      packing[19]  862
    RHS1      packing[20]  634
    RHS1      packing[21]  914
    RHS1      packing[22]  908
    RHS1      packing[23]  894
    RHS1      packing[24]  610
    RHS1      packing[25]  805
    RHS1      packing[26]  723
    RHS1      packing[27]  1075
    RHS1      packing[28]  695
    RHS1      packing[29]  871
    RHS1      packing[30]  962
    RHS1      packing[31]  729
    RHS1      packing[32]  871
    RHS1      packing[33]  702
    RHS1      packing[34]  884
    RHS1      packing[35]  780
    RHS1      packing[36]  812
    RHS1      packing[37]  613
    RHS1      packing[38]  641
    RHS1      packing[39]  604
    RHS1      packing[40]  687
    RHS1      packing[41]  864
    RHS1      packing[42]  844
    RHS1      packing[43]  830
    RHS1      packing[44]  445
    RHS1      packing[45]  775
    RHS1      packing[46]  650
    RHS1      packing[47]  541
    RHS1      packing[48]  1114
    RHS1      packing[49]  665
    RHS1      R51       4
BOUNDS
 BV BND1      x[1]    
 BV BND1      x[2]    
 BV BND1      x[3]    
 BV BND1      x[4]    
 BV BND1      x[5]    
 BV BND1      x[6]    
 BV BND1      x[7]    
 BV BND1      x[8]    
 BV BND1      x[9]    
 BV BND1      x[10]   
 BV BND1      x[11]   
 BV BND1      x[12]   
 BV BND1      x[13]   
 BV BND1      x[14]   
 BV BND1      x[15]   
 BV BND1      x[16]   
 BV BND1      x[17]   
 BV BND1      x[18]   
 BV BND1      x[19]   
 BV BND1      x[20]   
ENDATA
